n_machines = 10;
n_resources = 20;
n_jobs = 100;
horizon = 495;
LB = 49;
n_jobs_per_resource = [5, 5, 5, 5, 5, 5, 5, 5, 5, 5, 5, 5, 5, 5, 5, 5, 5, 5, 5, 5];
duration = [3, 9, 4, 6, 1, 3, 6, 7, 5, 2, 2, 2, 5, 5, 8, 6, 3, 8, 6, 6, 1, 9, 9, 6, 8, 2, 8, 9, 4, 5, 5, 9, 8, 5, 5, 5, 2, 4, 5, 2, 3, 7, 9, 2, 8, 6, 3, 6, 3, 2, 5, 2, 6, 3, 6, 5, 3, 8, 8, 7, 1, 1, 7, 9, 8, 6, 2, 2, 3, 8, 3, 2, 7, 7, 1, 3, 3, 6, 6, 4, 4, 3, 9, 7, 2, 3, 6, 6, 9, 2, 2, 2, 3, 9, 3, 6, 8, 6, 4, 2]